c
c Problem: Kolorowanie grafu (7 wezlow, 3 kolory)
c Graf wzorowany na polaczeniach mapy Australii.
c
c ZMIENNE (Mapowanie):
c Region 1 (WA):  1 2 3
c Region 2 (NT):  4 5 6
c Region 3 (SA):  7 8 9
c Region 4 (Q):   10 11 12
c Region 5 (NSW): 13 14 15
c Region 6 (V):   16 17 18
c Region 7 (T):   19 20 21
c
p cnf 21 58
c --- Każdy wezel musi miec przynajmniej 1 kolor ---
1 2 3 0
4 5 6 0
7 8 9 0
10 11 12 0
13 14 15 0
16 17 18 0
19 20 21 0
c --- Każdy wezel moze miec MAX 1 kolor (wykluczanie wewnetrzne) ---
-1 -2 0
-1 -3 0
-2 -3 0
-4 -5 0
-4 -6 0
-5 -6 0
-7 -8 0
-7 -9 0
-8 -9 0
-10 -11 0
-10 -12 0
-11 -12 0
-13 -14 0
-13 -15 0
-14 -15 0
-16 -17 0
-16 -18 0
-17 -18 0
-19 -20 0
-19 -21 0
-20 -21 0
c --- Ograniczenia krawedzi (sasiedzi nie moga miec tego samego koloru) ---
c Polaczenie 1-2 (WA-NT)
-1 -4 0
-2 -5 0
-3 -6 0
c Polaczenie 1-3 (WA-SA)
-1 -7 0
-2 -8 0
-3 -9 0
c Polaczenie 2-3 (NT-SA)
-4 -7 0
-5 -8 0
-6 -9 0
c Polaczenie 2-4 (NT-Q)
-4 -10 0
-5 -11 0
-6 -12 0
c Polaczenie 3-4 (SA-Q)
-7 -10 0
-8 -11 0
-9 -12 0
c Polaczenie 3-5 (SA-NSW)
-7 -13 0
-8 -14 0
-9 -15 0
c Polaczenie 3-6 (SA-V)
-7 -16 0
-8 -17 0
-9 -18 0
c Polaczenie 4-5 (Q-NSW)
-10 -13 0
-11 -14 0
-12 -15 0
c Polaczenie 5-6 (NSW-V)
-13 -16 0
-14 -17 0
-15 -18 0
c Polaczenie 6-7 (V-T) - dodana krawedz dla spojnosci
-16 -19 0
-17 -20 0
-18 -21 0
